bacp/03/params/inst-538-1-1058338582.param
language Essence 1.3
$ generated by bacp-gen.pl with seed 1058338582
$ edge probability 0.127
$ course loads in range 2..8
letting n_courses be 110
letting n_periods be 22
letting load_per_period_lb be 5
letting load_per_period_ub be 24
letting courses_per_period_lb be 5
letting courses_per_period_ub be 8
letting course_load be function(
1 --> 6,
2 --> 5,
3 --> 4,
4 --> 2,
5 --> 3,
6 --> 7,
7 --> 2,
8 --> 6,
9 --> 2,
10 --> 4,
11 --> 3,
12 --> 3,
13 --> 7,
14 --> 3,
15 --> 2,
16 --> 5,
17 --> 8,
18 --> 5,
19 --> 7,
20 --> 3,
21 --> 3,
22 --> 4,
23 --> 3,
24 --> 7,
25 --> 6,
26 --> 3,
27 --> 7,
28 --> 5,
29 --> 2,
30 --> 8,
31 --> 5,
32 --> 5,
33 --> 2,
34 --> 5,
35 --> 7,
36 --> 3,
37 --> 4,
38 --> 3,
39 --> 5,
40 --> 8,
41 --> 7,
42 --> 7,
43 --> 3,
44 --> 2,
45 --> 6,
46 --> 4,
47 --> 3,
48 --> 5,
49 --> 2,
50 --> 3,
51 --> 3,
52 --> 8,
53 --> 7,
54 --> 4,
55 --> 3,
56 --> 4,
57 --> 4,
58 --> 5,
59 --> 2,
60 --> 6,
61 --> 7,
62 --> 4,
63 --> 3,
64 --> 6,
65 --> 6,
66 --> 2,
67 --> 6,
68 --> 5,
69 --> 8,
70 --> 6,
71 --> 5,
72 --> 3,
73 --> 5,
74 --> 2,
75 --> 7,
76 --> 8,
77 --> 7,
78 --> 3,
79 --> 8,
80 --> 4,
81 --> 8,
82 --> 7,
83 --> 8,
84 --> 2,
85 --> 6,
86 --> 5,
87 --> 6,
88 --> 5,
89 --> 7,
90 --> 5,
91 --> 4,
92 --> 8,
93 --> 3,
94 --> 5,
95 --> 3,
96 --> 3,
97 --> 5,
98 --> 7,
99 --> 3,
100 --> 3,
101 --> 4,
102 --> 4,
103 --> 5,
104 --> 5,
105 --> 2,
106 --> 5,
107 --> 7,
108 --> 3,
109 --> 3,
110 --> 3
)
letting prerequisite be relation (
(2,34),
(21,35),
(32,36),
(17,37),
(19,38),
(22,39),
(27,40),
(7,41),
(5,42),
(4,43),
(8,44),
(14,45),
(33,46),
(3,47),
(30,48),
(28,49),
(20,50),
(6,51),
(1,52),
(24,53),
(33,54),
(5,55),
(10,56),
(4,57),
(13,58),
(8,59),
(9,60),
(25,61),
(4,62),
(16,63),
(11,64),
(8,65),
(18,66),
(8,67),
(15,68),
(12,69),
(16,70),
(27,71),
(21,72),
(24,73),
(29,74),
(17,75),
(13,76),
(13,77),
(29,78),
(10,79),
(20,80),
(8,81),
(70,82),
(62,83),
(48,84),
(65,85),
(39,86),
(47,87),
(53,88),
(68,89),
(45,90),
(76,91),
(50,92),
(37,93),
(67,94),
(69,95),
(76,96),
(68,97),
(69,98),
(54,99),
(40,100),
(50,101),
(69,102),
(67,103),
(44,104),
(40,105),
(43,106),
(63,107),
(61,108),
(65,109),
(64,110),
(50,94),
(60,97),
(24,64),
(16,52),
(39,100),
(48,98),
(21,49),
(41,100),
(74,88),
(78,89),
(26,67),
(4,41),
(15,65),
(4,78),
(55,89),
(12,52),
(31,41),
(14,42),
(29,63),
(66,85),
(51,105),
(11,61),
(52,107),
(59,85),
(53,98),
(54,94),
(3,68),
(17,77),
(5,47),
(80,101),
(26,60),
(31,55),
(68,100),
(42,98),
(12,45),
(10,44),
(45,96),
(51,108),
(21,45),
(81,98),
(73,108),
(7,50),
(31,70),
(80,87),
(73,104),
(38,104),
(62,109),
(6,49),
(8,71),
(4,53),
(7,76),
(77,108),
(53,109),
(24,52),
(10,76),
(33,59),
(70,107),
(73,91),
(5,38),
(75,83),
(24,74),
(31,74),
(78,98),
(9,40),
(21,61),
(3,70),
(21,56),
(78,102),
(2,50),
(22,40),
(40,84),
(6,79),
(57,97),
(16,78),
(79,95),
(5,66),
(19,61),
(20,72),
(53,101),
(13,64),
(2,78),
(58,105),
(21,47),
(2,65),
(9,68),
(27,79),
(79,101),
(20,34),
(49,94),
(3,77),
(39,84),
(62,105),
(40,98),
(30,49),
(41,109),
(77,88),
(26,39),
(29,62),
(40,110),
(3,76),
(6,50),
(15,48),
(29,46),
(31,57),
(73,105),
(60,92),
(16,69),
(7,51),
(43,90),
(32,54),
(36,99),
(25,67),
(39,106),
(19,35),
(47,101),
(53,107),
(44,93),
(68,108),
(8,39),
(69,105),
(28,35),
(29,77),
(67,110),
(65,110),
(31,60),
(17,62),
(51,102),
(18,71),
(62,95),
(35,97),
(5,37),
(10,53),
(80,91),
(15,60),
(34,101),
(66,101),
(29,73),
(18,44),
(21,46),
(37,105),
(2,76),
(6,46),
(70,86),
(65,98),
(29,57),
(15,78),
(37,104),
(36,89),
(30,34),
(74,83),
(25,41),
(63,101),
(29,60),
(37,98),
(77,95),
(50,98),
(13,67),
(5,74),
(12,76),
(2,71),
(45,87),
(48,103),
(5,46),
(5,54),
(71,106),
(45,93),
(39,103),
(77,92),
(33,43),
(7,49),
(11,80),
(64,108),
(31,38),
(33,73),
(20,79),
(34,89),
(19,59),
(33,58),
(30,63),
(63,102),
(78,86),
(66,84),
(25,43),
(28,43),
(67,104),
(28,64),
(50,93),
(11,41),
(24,46),
(74,103),
(8,61),
(9,43),
(39,107),
(81,99),
(59,96),
(46,105),
(31,71),
(63,85),
(30,53),
(6,59),
(67,102),
(42,94),
(25,68),
(60,106),
(57,96),
(25,54),
(77,90),
(26,35),
(19,46),
(72,85),
(13,55),
(58,98),
(27,46),
(12,58),
(52,88),
(8,78),
(4,77),
(15,74),
(29,48),
(31,52),
(54,105),
(3,49),
(42,95),
(21,52),
(12,44),
(12,43),
(67,82),
(29,70),
(26,62),
(12,50),
(12,46),
(32,60),
(44,86),
(36,85),
(42,82),
(65,83),
(12,70),
(65,88),
(13,59),
(39,91),
(68,87),
(58,88),
(72,94),
(21,80),
(32,44),
(15,73),
(24,77),
(3,46),
(10,45),
(16,77),
(18,48),
(81,93),
(7,40),
(5,71),
(27,68),
(60,91),
(48,86),
(7,71),
(54,85),
(18,49),
(52,102),
(7,81),
(11,76),
(10,81),
(37,109),
(3,62),
(16,41),
(70,103),
(55,86),
(19,45),
(4,52),
(38,100),
(19,68),
(30,72),
(51,87),
(28,72),
(5,56),
(36,94),
(1,42),
(21,48),
(9,39),
(39,83),
(5,63),
(78,87),
(47,102),
(36,102),
(12,36),
(40,107),
(33,75),
(43,97),
(42,106),
(20,44),
(58,108),
(76,110),
(13,69),
(15,38),
(67,95),
(22,62),
(46,108),
(11,70)
)

