bacp/param_dec/inst-538-1-1058338582.eprime-param
language ESSENCE' 1.0

letting n_courses be 110
letting n_periods be 22
letting prerequisite_RelationAsSet_Explicit_1 be
        [1, 1, 2, 2, 2, 2, 2, 2, 3, 3, 3, 3, 3, 3, 3, 3, 4, 4, 4, 4, 4, 4, 4, 4, 5, 5, 5, 5, 5, 5, 5, 5, 5, 5, 5, 5, 6,
         6, 6, 6, 6, 6, 7, 7, 7, 7, 7, 7, 7, 7, 8, 8, 8, 8, 8, 8, 8, 8, 8, 9, 9, 9, 9, 9, 10, 10, 10, 10, 10, 10, 10,
         11, 11, 11, 11, 11, 11, 12, 12, 12, 12, 12, 12, 12, 12, 12, 12, 12, 13, 13, 13, 13, 13, 13, 13, 13, 14, 14, 15,
         15, 15, 15, 15, 15, 15, 15, 16, 16, 16, 16, 16, 16, 16, 17, 17, 17, 17, 18, 18, 18, 18, 18, 19, 19, 19, 19, 19,
         19, 19, 20, 20, 20, 20, 20, 20, 21, 21, 21, 21, 21, 21, 21, 21, 21, 21, 21, 22, 22, 22, 24, 24, 24, 24, 24, 24,
         24, 25, 25, 25, 25, 25, 25, 26, 26, 26, 26, 26, 27, 27, 27, 27, 27, 28, 28, 28, 28, 28, 29, 29, 29, 29, 29, 29,
         29, 29, 29, 29, 29, 30, 30, 30, 30, 30, 30, 31, 31, 31, 31, 31, 31, 31, 31, 31, 32, 32, 32, 32, 33, 33, 33, 33,
         33, 33, 33, 34, 34, 35, 36, 36, 36, 36, 36, 37, 37, 37, 37, 37, 38, 38, 39, 39, 39, 39, 39, 39, 39, 39, 40, 40,
         40, 40, 40, 40, 41, 41, 42, 42, 42, 42, 42, 43, 43, 43, 44, 44, 44, 45, 45, 45, 45, 46, 46, 47, 47, 47, 48, 48,
         48, 48, 49, 50, 50, 50, 50, 50, 51, 51, 51, 51, 52, 52, 52, 53, 53, 53, 53, 53, 54, 54, 54, 54, 55, 55, 57, 57,
         58, 58, 58, 58, 59, 59, 60, 60, 60, 60, 61, 62, 62, 62, 62, 63, 63, 63, 63, 64, 64, 65, 65, 65, 65, 65, 65, 66,
         66, 66, 67, 67, 67, 67, 67, 67, 67, 68, 68, 68, 68, 68, 69, 69, 69, 69, 70, 70, 70, 70, 71, 72, 72, 73, 73, 73,
         73, 74, 74, 74, 75, 76, 76, 76, 77, 77, 77, 77, 77, 78, 78, 78, 78, 78, 79, 79, 80, 80, 80, 81, 81, 81;
             int(1..377)]
letting prerequisite_RelationAsSet_Explicit_2 be
        [42, 52, 34, 50, 65, 71, 76, 78, 46, 47, 49, 62, 68, 70, 76, 77, 41, 43, 52, 53, 57, 62, 77, 78, 37, 38, 42, 46,
         47, 54, 55, 56, 63, 66, 71, 74, 46, 49, 50, 51, 59, 79, 40, 41, 49, 50, 51, 71, 76, 81, 39, 44, 59, 61, 65, 67,
         71, 78, 81, 39, 40, 43, 60, 68, 44, 45, 53, 56, 76, 79, 81, 41, 61, 64, 70, 76, 80, 36, 43, 44, 45, 46, 50, 52,
         58, 69, 70, 76, 55, 58, 59, 64, 67, 69, 76, 77, 42, 45, 38, 48, 60, 65, 68, 73, 74, 78, 41, 52, 63, 69, 70, 77,
         78, 37, 62, 75, 77, 44, 48, 49, 66, 71, 35, 38, 45, 46, 59, 61, 68, 34, 44, 50, 72, 79, 80, 35, 45, 46, 47, 48,
         49, 52, 56, 61, 72, 80, 39, 40, 62, 46, 52, 53, 64, 73, 74, 77, 41, 43, 54, 61, 67, 68, 35, 39, 60, 62, 67, 40,
         46, 68, 71, 79, 35, 43, 49, 64, 72, 46, 48, 57, 60, 62, 63, 70, 73, 74, 77, 78, 34, 48, 49, 53, 63, 72, 38, 41,
         52, 55, 57, 60, 70, 71, 74, 36, 44, 54, 60, 43, 46, 54, 58, 59, 73, 75, 89, 101, 97, 85, 89, 94, 99, 102, 93,
         98, 104, 105, 109, 100, 104, 83, 84, 86, 91, 100, 103, 106, 107, 84, 98, 100, 105, 107, 110, 100, 109, 82, 94,
         95, 98, 106, 90, 97, 106, 86, 93, 104, 87, 90, 93, 96, 105, 108, 87, 101, 102, 84, 86, 98, 103, 94, 92, 93, 94,
         98, 101, 87, 102, 105, 108, 88, 102, 107, 88, 98, 101, 107, 109, 85, 94, 99, 105, 86, 89, 96, 97, 88, 98, 105,
         108, 85, 96, 91, 92, 97, 106, 108, 83, 95, 105, 109, 85, 101, 102, 107, 108, 110, 83, 85, 88, 98, 109, 110, 84,
         85, 101, 82, 94, 95, 102, 103, 104, 110, 87, 89, 97, 100, 108, 95, 98, 102, 105, 82, 86, 103, 107, 106, 85, 94,
         91, 104, 105, 108, 83, 88, 103, 83, 91, 96, 110, 88, 90, 92, 95, 108, 86, 87, 89, 98, 102, 95, 101, 87, 91,
         101, 93, 98, 99;
             int(1..377)]
letting course_load_Function1D be
        [6, 5, 4, 2, 3, 7, 2, 6, 2, 4, 3, 3, 7, 3, 2, 5, 8, 5, 7, 3, 3, 4, 3, 7, 6, 3, 7, 5, 2, 8, 5, 5, 2, 5, 7, 3, 4,
         3, 5, 8, 7, 7, 3, 2, 6, 4, 3, 5, 2, 3, 3, 8, 7, 4, 3, 4, 4, 5, 2, 6, 7, 4, 3, 6, 6, 2, 6, 5, 8, 6, 5, 3, 5, 2,
         7, 8, 7, 3, 8, 4, 8, 7, 8, 2, 6, 5, 6, 5, 7, 5, 4, 8, 3, 5, 3, 3, 5, 7, 3, 3, 4, 4, 5, 5, 2, 5, 7, 3, 3, 3;
             int(1..110)]
letting load_per_period_ub be 24
letting load_per_period_lb be 5
letting courses_per_period_ub be 8
letting courses_per_period_lb be 5
letting fin1 be 377
letting fin2 be 110
letting fin3 be 8
